(set-logic QF_UF)
(declare-fun circuit () Bool)
(declare-fun grn () Bool)
(declare-fun grn_MR () Bool)
(declare-fun grn_SR () Bool)
(declare-fun org () Bool)
(declare-fun org_MR () Bool)
(declare-fun org_SR () Bool)
(declare-fun prt () Bool)
(declare-fun rd1 () Bool)
(declare-fun rd2 () Bool)
(declare-fun red_MR () Bool)
(declare-fun red_SR () Bool)
(assert (or (not (= (or grn rd1) (or red_SR red_MR))) (not (or grn rd1)) (or red_SR red_MR)))
(assert (= (or grn rd1) (or red_SR red_MR)))
(assert (or grn rd1))
(assert (not (or red_SR red_MR)))
(check-sat)
(exit)
